
Gurobi 10.0.1 (linux64) logging started Sun Nov 26 15:46:24 2023

Set parameter LogFile to value "ArtificialInstance/ExperimentV2/S2T3K2/BaRo/gurobi91.txt"
Gurobi Optimizer version 10.0.1 build v10.0.1rc0 (linux64)

CPU model: AMD EPYC 7H12 64-Core Processor, instruction set [SSE2|AVX|AVX2]
Thread count: 128 physical cores, 128 logical processors, using up to 32 threads

Academic license 656792 - for non-commercial use only - registered to b.___@student.vu.nl
Optimize a model with 1422 rows, 2161 columns and 7362 nonzeros
Model fingerprint: 0x633a9482
Variable types: 1 continuous, 2160 integer (2160 binary)
Coefficient statistics:
  Matrix range     [1e+00, 4e+01]
  Objective range  [1e+00, 2e+01]
  Bounds range     [1e+00, 1e+00]
  RHS range        [1e+00, 1e+00]
Found heuristic solution: objective 631.7844705
Presolve time: 0.01s
Presolved: 1422 rows, 2161 columns, 7362 nonzeros
Variable types: 1 continuous, 2160 integer (2160 binary)

Root relaxation: objective 3.411118e+01, 1238 iterations, 0.03 seconds (0.02 work units)

    Nodes    |    Current Node    |     Objective Bounds      |     Work
 Expl Unexpl |  Obj  Depth IntInf | Incumbent    BestBd   Gap | It/Node Time

     0     0   34.11118    0  240  631.78447   34.11118  94.6%     -    0s
H    0     0                     166.2079482   34.11118  79.5%     -    0s
H    0     0                     151.9961122   34.11118  77.6%     -    0s
H    0     0                      64.0000571   34.11118  46.7%     -    0s
H    0     0                      51.8972000   38.44904  25.9%     -    0s
     0     0   38.44904    0  260   51.89720   38.44904  25.9%     -    0s
H    0     0                      50.8755422   38.44904  24.4%     -    0s
     0     0   38.50209    0  284   50.87554   38.50209  24.3%     -    0s
H    0     0                      49.1658088   42.49652  13.6%     -    0s
     0     0   42.49652    0  292   49.16581   42.49652  13.6%     -    0s
     0     0   44.09822    0  283   49.16581   44.09822  10.3%     -    0s
     0     0   44.40156    0  345   49.16581   44.40156  9.69%     -    0s
     0     0   44.46785    0  281   49.16581   44.46785  9.56%     -    0s
     0     0   44.46785    0  283   49.16581   44.46785  9.56%     -    0s
     0     0   44.47271    0  360   49.16581   44.47271  9.55%     -    0s
     0     0   44.47271    0  240   49.16581   44.47271  9.55%     -    0s
     0     0   44.47271    0  250   49.16581   44.47271  9.55%     -    0s
     0     0   44.47271    0  163   49.16581   44.47271  9.55%     -    0s
     0     0   44.48828    0  387   49.16581   44.48828  9.51%     -    0s
     0     0   44.56311    0  351   49.16581   44.56311  9.36%     -    0s
     0     0   44.56311    0  355   49.16581   44.56311  9.36%     -    0s
     0     0   45.47871    0  438   49.16581   45.47871  7.50%     -    0s
     0     0   45.52538    0  449   49.16581   45.52538  7.40%     -    0s
     0     0   45.53240    0  441   49.16581   45.53240  7.39%     -    0s
     0     0   45.53839    0  450   49.16581   45.53839  7.38%     -    0s
     0     0   45.53846    0  451   49.16581   45.53846  7.38%     -    0s
H    0     0                      48.2700144   45.53846  5.66%     -    0s
     0     0   45.72540    0  387   48.27001   45.72540  5.27%     -    0s
H    0     0                      47.2483566   45.72540  3.22%     -    0s
     0     0   45.80868    0  318   47.24836   45.80868  3.05%     -    0s
     0     0   45.80868    0  318   47.24836   45.80868  3.05%     -    0s
     0     0   45.91010    0  356   47.24836   45.91010  2.83%     -    0s
     0     0   45.91010    0  210   47.24836   45.91010  2.83%     -    0s
     0     0   45.94962    0  262   47.24836   45.94962  2.75%     -    0s
     0     0   45.95198    0  257   47.24836   45.95198  2.74%     -    0s
     0     0   47.24587    0  164   47.24836   47.24587  0.01%     -    0s

Cutting planes:
  Gomory: 10
  Clique: 68
  Zero half: 88
  RLT: 13

Explored 1 nodes (9835 simplex iterations) in 0.93 seconds (0.55 work units)
Thread count was 32 (of 128 available processors)

Solution count 9: 47.2484 48.27 49.1658 ... 631.784

Optimal solution found (tolerance 1.00e-04)
Best objective 4.724835660588e+01, best bound 4.724586742018e+01, gap 0.0053%
